69 98 53 99 87 9 13 16 17 47 14 12 
65 64 51 89 76 18 23 19 49 20 22 83 66 
68 4 2 100 70 
92 34 31 29 27 26 28 33 30 32 50 67 94 80 
39 36 40 38 37 35 72 71 93 96 
82 11 15 60 88 55 
91 95 62 63 85 84 56 
61 42 44 43 41 54 81 
1 3 5 45 46 8 6 7 79 73 78 10 97 59 74 57 24 48 21 25 77 75 58 86 52 90 
